(set-info :status unsat)
(declare-codatatypes ((T 0)) ((
  (f0)
  (f1 (proj0f1 T) (proj1f1 T) (proj2f1 T))
  (f2 (proj0f2 T) (proj1f2 T) (proj2f2 T) (proj3f2 T)))))
(assert (exists ((y9520 T) (y9521 T) (y9522 T) (y9519 T) (y9518 T) (y9515 T) (y9514 T) (y9517 T) (y9516 T) (y9513 T)) 
  (or 
    (and (= y9513 (f2 y9515 (f1 PLACEHOLDER (f1 PLACEHOLDER PLACEHOLDER PLACEHOLDER) PLACEHOLDER) (f1 (f1 PLACEHOLDER PLACEHOLDER PLACEHOLDER) PLACEHOLDER (f1 PLACEHOLDER PLACEHOLDER PLACEHOLDER)) (f1 PLACEHOLDER PLACEHOLDER PLACEHOLDER))) (= y9515 (f1 y9516 (f1 PLACEHOLDER PLACEHOLDER PLACEHOLDER) (f1 PLACEHOLDER PLACEHOLDER PLACEHOLDER))) (= y9516 (f2 y9513 PLACEHOLDER PLACEHOLDER PLACEHOLDER)) (= y9514 (f2 y9517 (f1 PLACEHOLDER (f1 PLACEHOLDER PLACEHOLDER PLACEHOLDER) PLACEHOLDER) (f1 (f1 PLACEHOLDER PLACEHOLDER PLACEHOLDER) PLACEHOLDER (f1 PLACEHOLDER PLACEHOLDER PLACEHOLDER)) (f1 PLACEHOLDER PLACEHOLDER PLACEHOLDER))) (= y9517 (f1 y9518 (f1 PLACEHOLDER PLACEHOLDER PLACEHOLDER) (f1 PLACEHOLDER PLACEHOLDER PLACEHOLDER))) (= y9518 (f2 y9514 PLACEHOLDER PLACEHOLDER PLACEHOLDER)) (distinct y9513 y9514)) 
    (and (= y9519 (f1 (f1 (f2 (f1 y9519 PLACEHOLDER PLACEHOLDER) PLACEHOLDER (f2 PLACEHOLDER PLACEHOLDER PLACEHOLDER PLACEHOLDER) (f2 PLACEHOLDER PLACEHOLDER PLACEHOLDER PLACEHOLDER)) (f1 PLACEHOLDER PLACEHOLDER PLACEHOLDER) PLACEHOLDER) (f2 PLACEHOLDER PLACEHOLDER PLACEHOLDER PLACEHOLDER) (f2 PLACEHOLDER PLACEHOLDER PLACEHOLDER PLACEHOLDER))) (= y9520 (f1 (f1 y9521 (f1 PLACEHOLDER PLACEHOLDER PLACEHOLDER) PLACEHOLDER) (f2 PLACEHOLDER PLACEHOLDER PLACEHOLDER PLACEHOLDER) (f2 PLACEHOLDER PLACEHOLDER PLACEHOLDER PLACEHOLDER))) (= y9521 (f2 y9522 PLACEHOLDER (f2 PLACEHOLDER PLACEHOLDER PLACEHOLDER PLACEHOLDER) (f2 PLACEHOLDER PLACEHOLDER PLACEHOLDER PLACEHOLDER))) (= y9522 (f1 y9520 PLACEHOLDER PLACEHOLDER)) (distinct y9519 y9520)))))
(check-sat)
